(set-logic QF_S)
(declare-fun var0 () String)
(assert (RegexIn var0 (RegexConcat (RegexPlus (RegexStar (Str2Reg "000"))) (RegexConcat (RegexPlus (RegexUnion (Str2Reg "11") (Str2Reg "222"))) (RegexConcat (RegexPlus (RegexStar (Str2Reg "333"))) (RegexConcat (RegexStar (RegexStar (Str2Reg "44"))) (RegexConcat (RegexStar (RegexStar (Str2Reg "55"))) (RegexConcat (RegexStar (RegexUnion (Str2Reg "66") (Str2Reg "77"))) (RegexConcat (RegexPlus (RegexPlus (Str2Reg "888"))) (RegexConcat (RegexStar (RegexPlus (Str2Reg "999"))) (RegexConcat (RegexUnion (RegexUnion (Str2Reg "a") (Str2Reg "bbb")) (RegexUnion (Str2Reg "cc") (Str2Reg "ddd"))) (RegexConcat (RegexUnion (RegexStar (Str2Reg "e")) (RegexStar (Str2Reg "fff"))) (RegexConcat (RegexStar (RegexStar (Str2Reg "gg"))) (RegexConcat (RegexPlus (RegexUnion (Str2Reg "h") (Str2Reg "i"))) (RegexConcat (RegexPlus (RegexStar (Str2Reg "jjj"))) (RegexConcat (RegexStar (RegexUnion (Str2Reg "kkk") (Str2Reg "ll"))) (RegexConcat (RegexStar (RegexUnion (Str2Reg "mm") (Str2Reg "n"))) (RegexConcat (RegexUnion (RegexPlus (Str2Reg "ooo")) (RegexPlus (Str2Reg "ppp"))) (RegexConcat (RegexPlus (RegexUnion (Str2Reg "q") (Str2Reg "rr"))) (RegexConcat (RegexPlus (RegexPlus (Str2Reg "s"))) (RegexConcat (RegexStar (RegexPlus (Str2Reg "ttt"))) (RegexConcat (RegexStar (RegexUnion (Str2Reg "uu") (Str2Reg "vv"))) (RegexConcat (RegexStar (RegexUnion (Str2Reg "www") (Str2Reg "xx"))) (RegexConcat (RegexPlus (RegexStar (Str2Reg "yy"))) (RegexConcat (RegexPlus (RegexUnion (Str2Reg "zzz") (Str2Reg "AA"))) (RegexConcat (RegexUnion (RegexUnion (Str2Reg "BBB") (Str2Reg "CC")) (RegexUnion (Str2Reg "D") (Str2Reg "EEE"))) (RegexConcat (RegexStar (RegexStar (Str2Reg "F"))) (RegexConcat (RegexStar (RegexStar (Str2Reg "G"))) (RegexConcat (RegexPlus (RegexStar (Str2Reg "HHH"))) (RegexConcat (RegexUnion (RegexStar (Str2Reg "II")) (RegexStar (Str2Reg "JJJ"))) (RegexConcat (RegexPlus (RegexStar (Str2Reg "KK"))) (RegexConcat (RegexUnion (RegexStar (Str2Reg "LLL")) (RegexStar (Str2Reg "MMM"))) (RegexConcat (RegexPlus (RegexUnion (Str2Reg "NNN") (Str2Reg "O"))) (RegexConcat (RegexPlus (RegexPlus (Str2Reg "P"))) (RegexConcat (RegexUnion (RegexUnion (Str2Reg "Q") (Str2Reg "RR")) (RegexUnion (Str2Reg "S") (Str2Reg "T"))) (RegexConcat (RegexPlus (RegexPlus (Str2Reg "UUU"))) (RegexConcat (RegexPlus (RegexPlus (Str2Reg "VVV"))) (RegexConcat (RegexStar (RegexUnion (Str2Reg "W") (Str2Reg "X"))) (RegexConcat (RegexStar (RegexUnion (Str2Reg "YYY") (Str2Reg "ZZZ"))) (RegexConcat (RegexPlus (RegexPlus (Str2Reg "!"))) (RegexConcat (RegexUnion (RegexStar (Str2Reg "\"\"\"")) (RegexStar (Str2Reg "#"))) (RegexConcat (RegexStar (RegexUnion (Str2Reg "$$") (Str2Reg "%%"))) (RegexConcat (RegexUnion (RegexUnion (Str2Reg "&&") (Str2Reg "'")) (RegexUnion (Str2Reg "(") (Str2Reg ")"))) (RegexConcat (RegexUnion (RegexStar (Str2Reg "*")) (RegexStar (Str2Reg "++"))) (RegexConcat (RegexStar (RegexPlus (Str2Reg ",,,"))) (RegexConcat (RegexPlus (RegexStar (Str2Reg "--"))) (RegexConcat (RegexUnion (RegexPlus (Str2Reg "..")) (RegexPlus (Str2Reg "//"))) (RegexConcat (RegexStar (RegexPlus (Str2Reg ":"))) (RegexConcat (RegexUnion (RegexPlus (Str2Reg ";;")) (RegexPlus (Str2Reg "<"))) (RegexConcat (RegexPlus (RegexStar (Str2Reg "="))) (RegexConcat (RegexPlus (RegexPlus (Str2Reg ">"))) (RegexConcat (RegexStar (RegexPlus (Str2Reg "??"))) (RegexConcat (RegexPlus (RegexUnion (Str2Reg "@@") (Str2Reg "["))) (RegexConcat (RegexUnion (RegexPlus (Str2Reg "\\\\")) (RegexPlus (Str2Reg "]]]"))) (RegexConcat (RegexPlus (RegexPlus (Str2Reg "^^^"))) (RegexConcat (RegexUnion (RegexUnion (Str2Reg "___") (Str2Reg "``")) (RegexUnion (Str2Reg "{{") (Str2Reg "|||"))) (RegexConcat (RegexUnion (RegexUnion (Str2Reg "}}}") (Str2Reg "~")) (RegexUnion (Str2Reg "00") (Str2Reg "111"))) (RegexConcat (RegexPlus (RegexPlus (Str2Reg "2"))) (RegexConcat (RegexStar (RegexStar (Str2Reg "33"))) (RegexConcat (RegexStar (RegexPlus (Str2Reg "44"))) (RegexConcat (RegexUnion (RegexUnion (Str2Reg "5") (Str2Reg "66")) (RegexUnion (Str2Reg "77") (Str2Reg "88"))) (RegexConcat (RegexPlus (RegexUnion (Str2Reg "9") (Str2Reg "a"))) (RegexConcat (RegexPlus (RegexPlus (Str2Reg "bbb"))) (RegexConcat (RegexStar (RegexPlus (Str2Reg "c"))) (RegexConcat (RegexPlus (RegexPlus (Str2Reg "d"))) (RegexConcat (RegexPlus (RegexStar (Str2Reg "eee"))) (RegexConcat (RegexUnion (RegexPlus (Str2Reg "ff")) (RegexPlus (Str2Reg "g"))) (RegexStar (RegexPlus (Str2Reg "hh"))))))))))))))))))))))))))))))))))))))))))))))))))))))))))))))))))))))
(assert (not (RegexIn var0 (RegexConcat (RegexStar (RegexStar (Str2Reg "000"))) (RegexConcat (RegexPlus (RegexUnion (Str2Reg "1") (Str2Reg "22"))) (RegexConcat (RegexUnion (RegexPlus (Str2Reg "333")) (RegexPlus (Str2Reg "4"))) (RegexConcat (RegexPlus (RegexStar (Str2Reg "5"))) (RegexConcat (RegexPlus (RegexStar (Str2Reg "666"))) (RegexConcat (RegexPlus (RegexPlus (Str2Reg "7"))) (RegexConcat (RegexPlus (RegexStar (Str2Reg "888"))) (RegexConcat (RegexPlus (RegexUnion (Str2Reg "9") (Str2Reg "aaa"))) (RegexConcat (RegexStar (RegexUnion (Str2Reg "b") (Str2Reg "c"))) (RegexConcat (RegexPlus (RegexPlus (Str2Reg "ddd"))) (RegexConcat (RegexStar (RegexPlus (Str2Reg "ee"))) (RegexConcat (RegexPlus (RegexUnion (Str2Reg "f") (Str2Reg "g"))) (RegexConcat (RegexPlus (RegexUnion (Str2Reg "h") (Str2Reg "ii"))) (RegexConcat (RegexPlus (RegexStar (Str2Reg "jjj"))) (RegexConcat (RegexPlus (RegexUnion (Str2Reg "k") (Str2Reg "ll"))) (RegexConcat (RegexStar (RegexPlus (Str2Reg "mmm"))) (RegexConcat (RegexPlus (RegexStar (Str2Reg "nn"))) (RegexConcat (RegexUnion (RegexStar (Str2Reg "o")) (RegexStar (Str2Reg "p"))) (RegexConcat (RegexPlus (RegexUnion (Str2Reg "qqq") (Str2Reg "rrr"))) (RegexConcat (RegexUnion (RegexPlus (Str2Reg "sss")) (RegexPlus (Str2Reg "ttt"))) (RegexConcat (RegexUnion (RegexUnion (Str2Reg "u") (Str2Reg "vv")) (RegexUnion (Str2Reg "w") (Str2Reg "x"))) (RegexConcat (RegexUnion (RegexUnion (Str2Reg "yy") (Str2Reg "zz")) (RegexUnion (Str2Reg "A") (Str2Reg "BBB"))) (RegexConcat (RegexUnion (RegexStar (Str2Reg "CC")) (RegexStar (Str2Reg "D"))) (RegexConcat (RegexStar (RegexPlus (Str2Reg "E"))) (RegexConcat (RegexUnion (RegexPlus (Str2Reg "FF")) (RegexPlus (Str2Reg "GG"))) (RegexConcat (RegexUnion (RegexUnion (Str2Reg "HH") (Str2Reg "I")) (RegexUnion (Str2Reg "JJJ") (Str2Reg "KKK"))) (RegexConcat (RegexUnion (RegexUnion (Str2Reg "LL") (Str2Reg "M")) (RegexUnion (Str2Reg "N") (Str2Reg "OOO"))) (RegexConcat (RegexStar (RegexUnion (Str2Reg "PP") (Str2Reg "Q"))) (RegexConcat (RegexUnion (RegexPlus (Str2Reg "RRR")) (RegexPlus (Str2Reg "SS"))) (RegexConcat (RegexPlus (RegexStar (Str2Reg "T"))) (RegexConcat (RegexUnion (RegexStar (Str2Reg "UUU")) (RegexStar (Str2Reg "VVV"))) (RegexConcat (RegexStar (RegexUnion (Str2Reg "WW") (Str2Reg "X"))) (RegexConcat (RegexPlus (RegexPlus (Str2Reg "YYY"))) (RegexConcat (RegexStar (RegexPlus (Str2Reg "Z"))) (RegexConcat (RegexStar (RegexPlus (Str2Reg "!!"))) (RegexConcat (RegexPlus (RegexStar (Str2Reg "\""))) (RegexConcat (RegexUnion (RegexStar (Str2Reg "#")) (RegexStar (Str2Reg "$$"))) (RegexConcat (RegexStar (RegexPlus (Str2Reg "%%"))) (RegexConcat (RegexPlus (RegexPlus (Str2Reg "&"))) (RegexConcat (RegexPlus (RegexUnion (Str2Reg "'''") (Str2Reg "("))) (RegexConcat (RegexStar (RegexUnion (Str2Reg ")") (Str2Reg "*"))) (RegexConcat (RegexUnion (RegexPlus (Str2Reg "+++")) (RegexPlus (Str2Reg ",,"))) (RegexConcat (RegexUnion (RegexStar (Str2Reg "--")) (RegexStar (Str2Reg ".."))) (RegexConcat (RegexUnion (RegexPlus (Str2Reg "/")) (RegexPlus (Str2Reg ":"))) (RegexConcat (RegexStar (RegexUnion (Str2Reg ";") (Str2Reg "<<<"))) (RegexConcat (RegexPlus (RegexUnion (Str2Reg "=") (Str2Reg ">>>"))) (RegexConcat (RegexUnion (RegexStar (Str2Reg "??")) (RegexStar (Str2Reg "@@@"))) (RegexConcat (RegexPlus (RegexStar (Str2Reg "[[["))) (RegexConcat (RegexPlus (RegexStar (Str2Reg "\\\\\\"))) (RegexConcat (RegexPlus (RegexPlus (Str2Reg "]]"))) (RegexConcat (RegexPlus (RegexPlus (Str2Reg "^^^"))) (RegexConcat (RegexUnion (RegexPlus (Str2Reg "__")) (RegexPlus (Str2Reg "```"))) (RegexConcat (RegexUnion (RegexUnion (Str2Reg "{{") (Str2Reg "|||")) (RegexUnion (Str2Reg "}}") (Str2Reg "~~"))) (RegexConcat (RegexPlus (RegexUnion (Str2Reg "000") (Str2Reg "11"))) (RegexConcat (RegexStar (RegexPlus (Str2Reg "222"))) (RegexConcat (RegexUnion (RegexPlus (Str2Reg "33")) (RegexPlus (Str2Reg "444"))) (RegexConcat (RegexPlus (RegexUnion (Str2Reg "555") (Str2Reg "666"))) (RegexConcat (RegexPlus (RegexStar (Str2Reg "777"))) (RegexConcat (RegexUnion (RegexStar (Str2Reg "888")) (RegexStar (Str2Reg "999"))) (RegexConcat (RegexUnion (RegexUnion (Str2Reg "aa") (Str2Reg "bb")) (RegexUnion (Str2Reg "cc") (Str2Reg "ddd"))) (RegexConcat (RegexStar (RegexStar (Str2Reg "eee"))) (RegexConcat (RegexStar (RegexPlus (Str2Reg "fff"))) (RegexConcat (RegexPlus (RegexPlus (Str2Reg "gg"))) (RegexConcat (RegexUnion (RegexUnion (Str2Reg "hhh") (Str2Reg "ii")) (RegexUnion (Str2Reg "jjj") (Str2Reg "kkk"))) (RegexConcat (RegexPlus (RegexPlus (Str2Reg "ll"))) (RegexStar (RegexStar (Str2Reg "mm")))))))))))))))))))))))))))))))))))))))))))))))))))))))))))))))))))))))
(check-sat)